../spot5/54.spot 67 4 271 108
2 2 2 2 2 2 2 2 2 2 2 2 2 4 4 4 4 4 2 2 2 2 2 2 2 4 4 2 4 2 4 4 4 4 4 2 4 4 4 2 2 4 4 2 4 4 2 4 4 4 4 4 2 2 2 4 2 2 2 2 2 2 4 2 4 4 2
2 31 30 0 3
2 2 108
1 1 108
0 0 108
2 45 39 0 2
2 0 108
0 0 108
2 24 25 0 2
0 2 108
0 0 108
2 23 22 0 1
0 0 108
2 38 32 0 3
2 2 108
1 1 108
0 0 108
2 24 26 0 2
0 2 108
0 0 108
2 49 47 0 3
2 2 108
1 1 108
0 0 108
2 38 39 0 2
2 0 108
0 0 108
2 50 41 0 3
2 2 108
1 1 108
0 0 108
2 35 38 0 2
0 2 108
0 0 108
2 34 36 0 3
2 2 108
1 1 108
0 0 108
2 50 48 0 3
2 2 108
1 1 108
0 0 108
3 6 20 13 0 1
0 0 1 108
2 50 51 0 3
2 2 108
1 1 108
0 0 108
2 41 46 0 2
2 0 108
0 0 108
2 50 46 0 2
2 0 108
0 0 108
2 48 41 0 3
2 2 108
1 1 108
0 0 108
2 20 18 0 1
0 0 108
2 51 41 0 3
2 2 108
1 1 108
0 0 108
3 40 58 55 0 1
0 0 1 108
3 58 55 41 0 1
0 1 2 108
2 51 48 0 3
2 2 108
1 1 108
0 0 108
2 48 46 0 2
2 0 108
0 0 108
2 7 4 0 1
0 0 108
3 44 58 55 0 1
2 0 1 108
3 58 55 46 0 1
0 1 0 108
2 11 8 0 1
0 0 108
2 7 5 0 1
0 0 108
2 40 43 0 1
0 0 108
3 6 18 13 0 1
0 0 1 108
2 35 34 0 2
0 2 108
0 0 108
2 45 43 0 2
2 0 108
0 0 108
2 34 32 0 3
2 2 108
1 1 108
0 0 108
2 10 9 0 1
0 0 108
2 23 21 0 1
0 0 108
3 43 58 55 0 1
0 0 1 108
2 50 36 0 3
2 2 108
1 1 108
0 0 108
3 45 58 55 0 1
2 0 1 108
2 44 43 0 2
2 0 108
0 0 108
2 34 39 0 2
2 0 108
0 0 108
2 38 43 0 2
2 0 108
0 0 108
2 63 62 0 1
0 1 108
2 40 38 0 2
0 2 108
0 0 108
2 17 13 0 3
2 2 108
1 1 108
0 0 108
2 48 36 0 3
2 2 108
1 1 108
0 0 108
3 58 55 36 0 1
0 1 2 108
2 49 43 0 2
2 0 108
0 0 108
2 52 55 0 2
0 2 108
0 0 108
2 50 47 0 3
2 2 108
1 1 108
0 0 108
2 44 38 0 3
2 2 108
1 1 108
0 0 108
2 56 52 0 1
0 0 108
3 5 20 13 0 1
0 0 1 108
2 40 41 0 2
0 2 108
0 0 108
2 42 41 0 3
2 2 108
1 1 108
0 0 108
2 66 62 0 1
0 1 108
2 45 41 0 3
2 2 108
1 1 108
0 0 108
2 48 47 0 3
2 2 108
1 1 108
0 0 108
2 65 64 0 3
2 2 108
1 1 108
0 0 108
2 51 47 0 3
2 2 108
1 1 108
0 0 108
2 54 53 0 1
0 0 108
2 40 46 0 1
0 0 108
2 50 45 0 3
2 2 108
1 1 108
0 0 108
2 35 37 0 2
0 2 108
0 0 108
2 41 39 0 2
2 0 108
0 0 108
2 42 46 0 2
2 0 108
0 0 108
2 44 41 0 3
2 2 108
1 1 108
0 0 108
2 45 46 0 2
2 0 108
0 0 108
2 38 41 0 3
2 2 108
1 1 108
0 0 108
3 8 23 17 0 1
0 0 1 108
2 44 48 0 3
2 2 108
1 1 108
0 0 108
2 43 37 0 2
0 2 108
0 0 108
2 11 12 0 1
0 0 108
2 11 10 0 1
0 0 108
2 56 54 0 1
0 0 108
2 48 45 0 3
2 2 108
1 1 108
0 0 108
2 44 46 0 2
2 0 108
0 0 108
2 14 16 0 3
2 2 108
1 1 108
0 0 108
2 38 46 0 2
2 0 108
0 0 108
2 50 42 0 3
2 2 108
1 1 108
0 0 108
2 49 41 0 3
2 2 108
1 1 108
0 0 108
3 58 55 39 0 1
0 1 0 108
2 36 39 0 2
2 0 108
0 0 108
3 7 19 13 0 1
0 0 1 108
2 31 33 0 3
2 2 108
1 1 108
0 0 108
2 35 39 0 1
0 0 108
3 8 22 17 0 1
0 0 1 108
2 5 15 0 1
0 1 108
2 49 46 0 2
2 0 108
0 0 108
2 48 42 0 3
2 2 108
1 1 108
0 0 108
2 50 49 0 3
2 2 108
1 1 108
0 0 108
2 40 36 0 2
0 2 108
0 0 108
3 5 19 13 0 1
0 0 1 108
2 43 39 0 1
0 0 108
2 12 9 0 1
0 0 108
2 44 36 0 3
2 2 108
1 1 108
0 0 108
2 20 22 0 1
0 0 108
2 40 33 0 2
0 2 108
0 0 108
2 37 39 0 2
2 0 108
0 0 108
2 52 53 0 1
0 0 108
2 40 32 0 2
0 2 108
0 0 108
2 44 47 0 3
2 2 108
1 1 108
0 0 108
2 38 33 0 3
2 2 108
1 1 108
0 0 108
2 40 45 0 2
0 2 108
0 0 108
2 40 39 0 1
0 0 108
2 44 40 0 2
2 0 108
0 0 108
2 23 19 0 1
0 0 108
2 44 32 0 3
2 2 108
1 1 108
0 0 108
2 45 37 0 3
2 2 108
1 1 108
0 0 108
2 44 45 0 3
2 2 108
1 1 108
0 0 108
2 40 42 0 2
0 2 108
0 0 108
2 44 39 0 2
2 0 108
0 0 108
2 7 6 0 1
0 0 108
2 29 28 0 2
0 2 108
0 0 108
2 45 42 0 3
2 2 108
1 1 108
0 0 108
2 63 64 0 1
0 1 108
2 38 37 0 3
2 2 108
1 1 108
0 0 108
2 27 28 0 2
0 2 108
0 0 108
2 6 15 0 1
0 1 108
2 29 31 0 2
0 2 108
0 0 108
2 20 21 0 1
0 0 108
2 49 45 0 3
2 2 108
1 1 108
0 0 108
2 38 42 0 3
2 2 108
1 1 108
0 0 108
2 49 37 0 3
2 2 108
1 1 108
0 0 108
2 35 31 0 2
0 2 108
0 0 108
2 47 46 0 2
2 0 108
0 0 108
2 5 14 0 1
0 1 108
2 49 42 0 3
2 2 108
1 1 108
0 0 108
2 34 33 0 3
2 2 108
1 1 108
0 0 108
2 17 16 0 3
2 2 108
1 1 108
0 0 108
2 36 46 0 2
2 0 108
0 0 108
2 66 64 0 1
0 1 108
2 15 16 0 3
2 2 108
1 1 108
0 0 108
2 43 41 0 2
0 2 108
0 0 108
2 56 55 0 2
0 2 108
0 0 108
2 8 9 0 1
0 0 108
2 43 46 0 1
0 0 108
2 54 55 0 2
0 2 108
0 0 108
2 34 37 0 3
2 2 108
1 1 108
0 0 108
2 37 41 0 3
2 2 108
1 1 108
0 0 108
3 6 19 13 0 1
0 0 1 108
2 19 21 0 1
0 0 108
2 15 13 0 3
2 2 108
1 1 108
0 0 108
2 19 18 0 1
0 0 108
2 37 46 0 2
2 0 108
0 0 108
2 35 36 0 2
0 2 108
0 0 108
2 15 17 0 3
2 2 108
1 1 108
0 0 108
2 23 18 0 1
0 0 108
2 43 36 0 2
0 2 108
0 0 108
2 7 15 0 1
0 1 108
2 4 5 0 1
0 0 108
2 33 36 0 3
2 2 108
1 1 108
0 0 108
3 7 20 13 0 1
0 0 1 108
2 35 33 0 2
0 2 108
0 0 108
2 50 37 0 3
2 2 108
1 1 108
0 0 108
2 22 21 0 1
0 0 108
3 8 21 17 0 1
0 0 1 108
2 63 65 0 1
0 1 108
2 22 18 0 1
0 0 108
2 6 14 0 1
0 1 108
2 56 53 0 1
0 0 108
2 37 36 0 3
2 2 108
1 1 108
0 0 108
2 43 47 0 2
0 2 108
0 0 108
2 35 32 0 2
0 2 108
0 0 108
2 53 55 0 2
0 2 108
0 0 108
3 58 55 37 0 1
0 1 2 108
2 40 34 0 2
0 2 108
0 0 108
2 51 42 0 3
2 2 108
1 1 108
0 0 108
3 7 18 13 0 1
0 0 1 108
3 58 55 42 0 1
0 1 2 108
2 33 32 0 3
2 2 108
1 1 108
0 0 108
2 66 65 0 1
0 1 108
3 5 18 13 0 1
0 0 1 108
2 33 39 0 2
2 0 108
0 0 108
2 28 30 0 3
2 2 108
1 1 108
0 0 108
2 20 19 0 1
0 0 108
2 38 34 0 3
2 2 108
1 1 108
0 0 108
2 37 32 0 3
2 2 108
1 1 108
0 0 108
2 43 42 0 2
0 2 108
0 0 108
2 29 30 0 2
0 2 108
0 0 108
2 27 30 0 2
0 2 108
0 0 108
2 49 48 0 3
2 2 108
1 1 108
0 0 108
2 50 44 0 3
2 2 108
1 1 108
0 0 108
2 31 32 0 3
2 2 108
1 1 108
0 0 108
2 42 36 0 3
2 2 108
1 1 108
0 0 108
2 45 36 0 3
2 2 108
1 1 108
0 0 108
2 11 9 0 1
0 0 108
2 44 33 0 3
2 2 108
1 1 108
0 0 108
2 14 13 0 3
2 2 108
1 1 108
0 0 108
2 38 36 0 3
2 2 108
1 1 108
0 0 108
3 38 58 55 0 1
2 0 1 108
2 40 37 0 2
0 2 108
0 0 108
2 50 43 0 2
2 0 108
0 0 108
2 6 5 0 1
0 0 108
2 7 14 0 1
0 1 108
2 42 47 0 3
2 2 108
1 1 108
0 0 108
2 45 47 0 3
2 2 108
1 1 108
0 0 108
2 49 36 0 3
2 2 108
1 1 108
0 0 108
2 48 43 0 2
2 0 108
0 0 108
2 44 37 0 3
2 2 108
1 1 108
0 0 108
2 32 39 0 2
2 0 108
0 0 108
2 62 64 0 3
2 2 108
1 1 108
0 0 108
2 15 14 0 3
2 2 108
1 1 108
0 0 108
2 44 42 0 3
2 2 108
1 1 108
0 0 108
2 42 39 0 2
2 0 108
0 0 108
1 0 0 1
1 2
1 1 0 1
1 2
1 2 0 1
1 2
1 3 0 1
1 2
1 4 0 1
1 2
1 5 0 1
1 2
1 6 0 1
1 2
1 7 0 1
1 2
1 8 0 1
1 2
1 9 0 1
1 2
1 10 0 1
1 2
1 11 0 1
1 2
1 12 0 1
1 2
1 13 0 1
3 1
1 14 0 1
3 1
1 15 0 1
3 1
1 16 0 1
3 1
1 17 0 1
3 1
1 18 0 1
1 2
1 19 0 1
1 2
1 20 0 1
1 2
1 21 0 1
1 2
1 22 0 1
1 2
1 23 0 1
1 2
1 24 0 1
1 2
1 25 0 1
3 1
1 26 0 1
3 1
1 27 0 1
1 2
1 28 0 1
3 1
1 29 0 1
1 2
1 30 0 1
3 1
1 31 0 1
3 1
1 32 0 1
3 1
1 33 0 1
3 1
1 34 0 1
3 1
1 35 0 1
1 2
1 36 0 1
3 1
1 37 0 1
3 1
1 38 0 1
3 1
1 39 0 1
1 2
1 40 0 1
1 2
1 41 0 1
3 1
1 42 0 1
3 1
1 43 0 1
1 2
1 44 0 1
3 1
1 45 0 1
3 1
1 46 0 1
1 2
1 47 0 1
3 1
1 48 0 1
3 1
1 49 0 1
3 1
1 50 0 1
3 1
1 51 0 1
3 1
1 52 0 1
1 2
1 53 0 1
1 2
1 54 0 1
1 2
1 55 0 1
3 1
1 56 0 1
1 2
1 57 0 1
1 2
1 58 0 1
1 2
1 59 0 1
1 1
1 60 0 1
1 2
1 61 0 1
1 2
1 62 0 1
3 2
1 63 0 1
1 2
1 64 0 1
3 2
1 65 0 1
3 2
1 66 0 1
1 2
